formal_verification/runs/model_eval_v7_smoke2/case_001/run/model/design_smt2.smt2
; SMT-LIBv2 description generated by Yosys 0.64+40 (git sha1 90b906c4f, clang++ 18.1.8 -fPIC -O3)
; yosys-smt2-module vert_formal_wrap
(declare-sort |vert_formal_wrap_s| 0)
(declare-fun |vert_formal_wrap_is| (|vert_formal_wrap_s|) Bool)
; yosys-smt2-wire auth_6 32
(define-fun |vert_formal_wrap_n auth_6| ((state |vert_formal_wrap_s|)) (_ BitVec 32) #b00000000000000000000000000000000)
; yosys-smt2-wire chip_8 32
(define-fun |vert_formal_wrap_n chip_8| ((state |vert_formal_wrap_s|)) (_ BitVec 32) #b00000000000000000000000000000000)
; yosys-smt2-wire clk_3 32
(define-fun |vert_formal_wrap_n clk_3| ((state |vert_formal_wrap_s|)) (_ BitVec 32) #b00000000000000000000000000000000)
; yosys-smt2-wire clk_4 32
(define-fun |vert_formal_wrap_n clk_4| ((state |vert_formal_wrap_s|)) (_ BitVec 32) #b00000000000000000000000000000000)
; yosys-smt2-wire data_1 32
(define-fun |vert_formal_wrap_n data_1| ((state |vert_formal_wrap_s|)) (_ BitVec 32) #b00000000000000000000000000000000)
; yosys-smt2-wire data_10 32
(define-fun |vert_formal_wrap_n data_10| ((state |vert_formal_wrap_s|)) (_ BitVec 32) #b00000000000000000000000000000000)
; yosys-smt2-wire data_15 32
(define-fun |vert_formal_wrap_n data_15| ((state |vert_formal_wrap_s|)) (_ BitVec 32) #b00000000000000000000000000000000)
; yosys-smt2-wire data_2 32
(define-fun |vert_formal_wrap_n data_2| ((state |vert_formal_wrap_s|)) (_ BitVec 32) #b00000000000000000000000000000000)
; yosys-smt2-wire hw_6 32
(define-fun |vert_formal_wrap_n hw_6| ((state |vert_formal_wrap_s|)) (_ BitVec 32) #b00000000000000000000000000000000)
; yosys-smt2-wire reg_12 32
(define-fun |vert_formal_wrap_n reg_12| ((state |vert_formal_wrap_s|)) (_ BitVec 32) #b00000000000000000000000000000000)
; yosys-smt2-wire reg_9 32
(define-fun |vert_formal_wrap_n reg_9| ((state |vert_formal_wrap_s|)) (_ BitVec 32) #b00000000000000000000000000000000)
; yosys-smt2-wire rst 1
(define-fun |vert_formal_wrap_n rst| ((state |vert_formal_wrap_s|)) Bool false)
; yosys-smt2-wire rx_6 32
(define-fun |vert_formal_wrap_n rx_6| ((state |vert_formal_wrap_s|)) (_ BitVec 32) #b00000000000000000000000000000000)
; yosys-smt2-wire tx_14 32
(define-fun |vert_formal_wrap_n tx_14| ((state |vert_formal_wrap_s|)) (_ BitVec 32) #b00000000000000000000000000000000)
; yosys-smt2-wire tx_16 32
(define-fun |vert_formal_wrap_n tx_16| ((state |vert_formal_wrap_s|)) (_ BitVec 32) #b00000000000000000000000000000000)
; yosys-smt2-assert 0 _witness_.check_assert_vert_formal_wrap_sv_62_9 vert_formal_wrap.sv:62.5-62.80
(define-fun |vert_formal_wrap_a 0| ((state |vert_formal_wrap_s|)) Bool (or true (not true))) ; _witness_.check_assert_vert_formal_wrap_sv_62_9
; yosys-smt2-assert 1 _witness_.check_assert_vert_formal_wrap_sv_63_16 vert_formal_wrap.sv:63.5-63.109
(define-fun |vert_formal_wrap_a 1| ((state |vert_formal_wrap_s|)) Bool (or true (not true))) ; _witness_.check_assert_vert_formal_wrap_sv_63_16
; yosys-smt2-assert 2 _witness_.check_assert_vert_formal_wrap_sv_64_26 vert_formal_wrap.sv:64.5-64.144
(define-fun |vert_formal_wrap_a 2| ((state |vert_formal_wrap_s|)) Bool (or true (not true))) ; _witness_.check_assert_vert_formal_wrap_sv_64_26
; yosys-smt2-assume 0 _witness_.check_assume_vert_formal_wrap_sv_61_7 vert_formal_wrap.sv:61.5-61.18
(define-fun |vert_formal_wrap_u 0| ((state |vert_formal_wrap_s|)) Bool (or true (not true))) ; _witness_.check_assume_vert_formal_wrap_sv_61_7
(define-fun |vert_formal_wrap_a| ((state |vert_formal_wrap_s|)) Bool (and
  (|vert_formal_wrap_a 0| state)
  (|vert_formal_wrap_a 1| state)
  (|vert_formal_wrap_a 2| state)
))
(define-fun |vert_formal_wrap_u| ((state |vert_formal_wrap_s|)) Bool 
  (|vert_formal_wrap_u 0| state)
)
(define-fun |vert_formal_wrap_i| ((state |vert_formal_wrap_s|)) Bool true)
(define-fun |vert_formal_wrap_h| ((state |vert_formal_wrap_s|)) Bool true)
(define-fun |vert_formal_wrap_t| ((state |vert_formal_wrap_s|) (next_state |vert_formal_wrap_s|)) Bool true) ; end of module vert_formal_wrap
; yosys-smt2-topmod vert_formal_wrap
; end of yosys output
